10 
300 
-0.5 0 0 0
0.5 0 0 -16
-7 -7 -35 -102
-7 -5 -35 -97
-7 -3 -35 -114
-7 -1 -35 -81
-7 1 -35 -104
-7 3 35 -12
-7 5 35 -22
-7 7 35 -12
-5 -7 -35 -93
-5 -5 25 -20
-5 -3 -25 -66
-5 -1 -25 -100
-5 1 25 -28
-5 3 -25 -65
-5 5 25 -29
-5 7 35 -28
-3 -7 35 -26
-3 -5 -25 -121
-3 -3 -15 -87
-3 -1 -15 -121
-3 1 -15 -77
-3 3 15 -24
-3 5 25 -24
-3 7 35 -17
-1 -7 35 -18
-1 -5 25 -24
-1 -3 15 -19
-1 -1 5 -16
-1 1 -5 -99
-1 3 15 -13
-1 5 25 -18
-1 7 -35 -107
1 -7 35 -18
1 -5 25 -21
1 -3 15 -27
1 -1 -5 -71
1 1 -5 -68
1 3 15 -14
1 5 -25 -129
1 7 -35 -139
3 -7 35 -28
3 -5 25 -17
3 -3 -15 -84
3 -1 -15 -63
3 1 -15 -121
3 3 15 -15
3 5 25 -11
3 7 -35 -74
5 -7 -35 -122
5 -5 25 -28
5 -3 -25 -80
5 -1 -25 -75
5 1 25 -14
5 3 -25 -86
5 5 -25 -112
5 7 35 -18
7 -7 35 -10
7 -5 -35 -80
7 -3 -35 -130
7 -1 -35 -104
7 1 -35 -71
7 3 35 -18
7 5 -35 -133
7 7 35 -21
